\ENCODING=ISO-8859-1
\Problem name: 

Maximize
 obj: U
Subject To
 Prob: x0 + x1 + x2 + x3 + x4 + x5 + x6 + x7  = 1
 c0:   - 2.0170096351587 x0 - 0.252126204394837 x1 - 2.0170096351587 x2
       - 2.0170096351587 x3 - 2.0170096351587 x4 - 0.252126204394837 x5
       - 2.0170096351587 x6 - 1.00850481757935 x7 - U >= 0
 c1:   - 3.9553625040166 x0 - 0.494420313002074 x1 - 3.9553625040166 x2
       - 3.9553625040166 x3 - 3.9553625040166 x4 - 0.494420313002074 x5
       - 3.9553625040166 x6 - 1.9776812520083 x7 - U >= 0
 c2:   - 7.48246796228363 x0 - 0.935308495285454 x1 - 7.48246796228363 x2
       - 7.48246796228363 x3 - 0.935308495285454 x4 - 1.87061699057091 x5
       - 0.935308495285454 x6 - 3.74123398114182 x7 - U >= 0
 c3:   - 7.48246796228363 x0 - 0.935308495285454 x1 - 0.935308495285454 x2
       - 7.48246796228363 x3 - 7.48246796228363 x4 - 0.935308495285454 x5
       - 7.48246796228363 x6 - 1.87061699057091 x7 - U >= 0
 c4:   - 7.48246796228363 x0 - 7.48246796228363 x1 - 7.48246796228363 x2
       - 0.935308495285454 x3 - 0.935308495285454 x4 - 1.87061699057091 x5
       - 0.935308495285454 x6 - 0.935308495285454 x7 - U >= 0
 c5:   - 7.48246796228363 x0 - 7.48246796228363 x1 - 7.48246796228363 x2
       - 0.935308495285454 x3 - 0.935308495285454 x4 - 1.87061699057091 x5
       - 0.935308495285454 x6 - 0.935308495285454 x7 - U >= 0
 c6:   - 7.48246796228363 x0 - 7.48246796228363 x1 - 3.74123398114182 x2
       - 3.74123398114182 x3 - 7.48246796228363 x4 - 0.935308495285454 x5
       - 0.935308495285454 x6 - 3.74123398114182 x7 - U >= 0
 c7:   - 3.74123398114182 x0 - 0.935308495285454 x1 - 1.87061699057091 x2
       - 7.48246796228363 x3 - 7.48246796228363 x4 - 0.935308495285454 x5
       - 7.48246796228363 x6 - 0.935308495285454 x7 - U >= 0
 c8:   - 3.74123398114182 x0 - 0.935308495285454 x1 - 3.74123398114182 x2
       - 7.48246796228363 x3 - 7.48246796228363 x4 - 1.87061699057091 x5
       - 7.48246796228363 x6 - 0.935308495285454 x7 - U >= 0
 c9:   - 3.74123398114182 x0 - 0.935308495285454 x1 - 3.74123398114182 x2
       - 0.935308495285454 x3 - 0.935308495285454 x4 - 1.87061699057091 x5
       - 0.935308495285454 x6 - 0.935308495285454 x7 - U >= 0
Bounds
 0 <= x0 <= 1
 0 <= x1 <= 1
 0 <= x2 <= 1
 0 <= x3 <= 1
 0 <= x4 <= 1
 0 <= x5 <= 1
 0 <= x6 <= 1
 0 <= x7 <= 1
      U Free
End
